32	0

0	3	2	3	5
8	3	4	7	8
2	3	4	7	8
3	2	6	10
9	3	6	7	8
5	1	9
3	2	9	10
4	2	9	10
4	1	11
9	1	12
2	1	12
5	1	13
5	1	14
1	1	15
8	2	16	17
8	2	18	19
4	2	18	19
1	1	20
10	1	20
2	1	21
6	2	22	24
1	1	23
10	1	25
3	1	25
8	1	26
3	1	27
10	1	28
10	2	29	30
10	1	32
8	1	31
4	1	32
0	0
